solution status: optimal solution found
objective value:                                    0
$_6__4_y                                            1 	(obj:0)
$_6__4_z                                           25 	(obj:0)
$_112_y                                            21 	(obj:0)
$_112_z                                            22 	(obj:0)
$_79_y                                             19 	(obj:0)
$_79_z                                             21 	(obj:0)
$_7__4_y                                           17 	(obj:0)
$_7__4_z                                           21 	(obj:0)
$_80_y                                             19 	(obj:0)
$_80_z                                             23 	(obj:0)
